70
1 0 2
2 0 1
2 1 4
3 0 2
3 1 4
4 0 8
4 3 10
5 0 7
5 1 3
5 2 4
5 3 4
5 4 10
6 0 6
6 1 6
6 4 1
6 5 7
7 0 8
7 1 9
7 2 9
7 3 8
7 4 1
7 6 6
8 0 2
8 1 7
8 2 5
8 3 6
8 7 2
9 0 8
9 1 3
9 2 2
9 4 5
9 5 6
9 7 7
9 8 3
10 1 1
10 2 4
10 3 10
10 4 4
10 5 9
10 6 10
10 7 7
10 8 8
10 9 7
11 0 8
11 1 1
11 3 8
11 6 10
11 8 4
11 10 8
12 0 8
12 1 4
12 2 3
12 4 10
12 5 9
12 6 10
12 7 8
12 8 10
12 9 6
12 11 9
13 0 6
13 1 6
13 4 1
13 5 3
13 6 9
13 7 1
13 8 6
13 9 5
13 10 7
13 11 3
14 1 6
14 4 4
14 5 3
14 7 10
14 9 4
14 11 2
14 12 2
14 13 5
15 1 7
15 2 5
15 3 3
15 4 6
15 6 10
15 8 4
15 9 1
15 10 5
15 13 6
16 0 7
16 4 7
16 5 2
16 6 5
16 7 5
16 9 9
16 12 3
16 13 9
16 14 6
16 15 10
17 0 2
17 2 10
17 4 1
17 5 3
17 6 3
17 7 2
17 8 7
17 10 7
17 12 3
17 14 1
18 0 8
18 1 3
18 2 9
18 3 1
18 4 7
18 5 10
18 9 9
18 10 2
18 11 2
18 12 2
18 13 7
18 14 6
18 15 10
18 16 7
18 17 7
19 0 10
19 1 6
19 3 5
19 5 10
19 6 10
19 7 7
19 9 1
19 10 1
19 11 7
19 12 8
19 14 10
19 18 4
20 0 6
20 1 6
20 2 7
20 3 8
20 4 7
20 6 6
20 7 10
20 13 5
20 14 9
20 15 1
20 16 5
20 18 4
20 19 1
21 0 1
21 1 5
21 2 1
21 3 4
21 4 10
21 5 2
21 6 9
21 7 5
21 9 9
21 10 3
21 11 9
21 12 5
21 13 3
21 14 8
21 15 6
21 17 5
21 19 3
21 20 1
22 0 10
22 1 9
22 2 2
22 5 4
22 7 3
22 8 5
22 9 2
22 10 2
22 11 5
22 13 3
22 15 7
22 16 8
22 18 4
22 19 2
22 20 8
22 21 3
23 0 5
23 2 5
23 4 3
23 6 3
23 8 6
23 9 9
23 10 8
23 12 3
23 13 10
23 14 9
23 16 6
23 18 5
23 19 5
23 20 4
23 22 8
24 0 5
24 2 6
24 3 1
24 5 3
24 7 3
24 8 9
24 10 8
24 11 7
24 12 6
24 14 10
24 15 4
24 16 6
24 17 2
24 18 1
24 19 5
24 20 5
24 21 9
24 23 5
25 0 2
25 4 2
25 6 3
25 7 2
25 8 10
25 9 4
25 11 1
25 12 5
25 13 1
25 15 8
25 16 1
25 17 7
25 20 3
25 21 3
25 23 8
25 24 2
26 0 4
26 1 9
26 2 5
26 4 10
26 5 10
26 6 2
26 10 1
26 11 7
26 13 9
26 14 6
26 16 1
26 17 10
26 18 9
26 19 10
26 20 8
26 22 1
26 23 2
26 25 6
27 1 7
27 3 5
27 4 7
27 5 3
27 6 9
27 7 6
27 8 4
27 9 10
27 11 10
27 13 5
27 15 6
27 16 8
27 17 5
27 18 10
27 20 6
27 21 2
27 23 3
27 25 2
28 0 4
28 2 9
28 3 7
28 4 5
28 5 2
28 6 2
28 8 5
28 9 4
28 10 9
28 11 10
28 12 8
28 13 5
28 14 5
28 15 8
28 16 10
28 17 3
28 18 9
28 19 2
28 21 9
28 22 4
28 26 6
28 27 10
29 0 6
29 1 3
29 4 7
29 6 3
29 7 2
29 8 2
29 9 6
29 10 7
29 11 10
29 12 4
29 13 1
29 14 8
29 15 8
29 18 9
29 19 7
29 20 7
29 22 9
29 24 9
29 25 6
29 28 8
30 1 3
30 3 3
30 6 1
30 7 1
30 9 2
30 11 7
30 13 8
30 14 9
30 17 7
30 18 10
30 19 9
30 20 7
30 21 6
30 23 3
30 24 6
30 25 7
30 26 5
30 27 5
30 28 10
30 29 10
31 1 8
31 3 1
31 5 3
31 6 4
31 7 10
31 8 9
31 9 7
31 10 3
31 11 8
31 12 4
31 13 6
31 14 4
31 15 8
31 16 5
31 17 7
31 18 9
31 19 9
31 20 4
31 21 6
31 23 6
31 24 9
31 25 7
31 26 3
31 27 5
31 28 4
31 29 4
31 30 2
32 0 4
32 1 8
32 2 1
32 3 5
32 4 2
32 5 1
32 6 10
32 8 8
32 11 3
32 12 1
32 13 9
32 14 5
32 15 3
32 17 7
32 18 5
32 20 3
32 21 9
32 22 1
32 24 2
32 26 3
32 28 2
32 29 9
32 30 2
33 1 2
33 2 1
33 3 9
33 5 1
33 7 1
33 8 3
33 9 8
33 10 10
33 13 9
33 14 2
33 19 6
33 20 6
33 22 4
33 24 9
33 25 3
33 26 7
33 27 9
33 28 8
33 30 9
33 31 7
33 32 10
34 0 1
34 1 7
34 3 9
34 4 3
34 8 5
34 9 2
34 10 3
34 11 4
34 13 8
34 15 5
34 16 1
34 17 1
34 20 3
34 21 5
34 22 9
34 23 1
34 24 5
34 25 7
34 28 2
34 29 5
34 30 4
34 31 4
35 0 9
35 1 5
35 2 5
35 3 10
35 4 4
35 7 7
35 10 4
35 12 9
35 13 4
35 14 7
35 15 4
35 16 10
35 17 3
35 19 7
35 22 7
35 26 5
35 27 4
35 28 3
35 30 2
35 31 9
35 32 10
35 33 6
35 34 1
36 1 1
36 4 6
36 6 3
36 8 3
36 9 9
36 11 4
36 12 1
36 14 4
36 15 10
36 16 6
36 17 7
36 18 9
36 19 2
36 21 6
36 22 1
36 24 9
36 25 1
36 28 8
36 32 10
36 33 10
36 34 3
37 2 8
37 3 4
37 5 6
37 7 5
37 10 10
37 11 1
37 13 6
37 15 5
37 16 7
37 17 10
37 18 6
37 19 2
37 20 2
37 22 2
37 23 10
37 24 1
37 25 10
37 27 3
37 28 1
37 29 5
37 32 8
37 33 5
37 34 6
38 0 9
38 1 6
38 4 1
38 6 7
38 8 8
38 10 6
38 12 5
38 15 7
38 16 10
38 18 8
38 21 4
38 22 9
38 23 10
38 25 5
38 26 7
38 27 10
38 28 3
38 31 6
38 33 5
38 34 10
38 35 7
38 36 3
39 1 2
39 3 6
39 4 1
39 5 5
39 6 4
39 7 4
39 8 8
39 9 9
39 10 5
39 11 2
39 13 7
39 15 7
39 17 1
39 20 2
39 22 9
39 24 1
39 25 8
39 27 4
39 28 10
39 29 1
39 31 3
39 32 8
39 33 6
39 34 6
39 35 10
39 36 2
39 37 7
40 1 10
40 4 1
40 5 2
40 6 10
40 7 9
40 8 3
40 9 2
40 10 1
40 12 9
40 14 2
40 16 3
40 17 8
40 20 3
40 21 9
40 23 4
40 25 8
40 26 10
40 27 10
40 29 5
40 31 1
40 34 2
40 37 7
40 38 1
41 0 5
41 1 6
41 2 8
41 3 5
41 4 1
41 5 10
41 6 4
41 7 3
41 8 8
41 9 9
41 10 1
41 14 7
41 15 5
41 18 3
41 19 7
41 21 4
41 22 8
41 23 7
41 24 7
41 26 2
41 27 9
41 29 1
41 30 4
41 32 9
41 35 8
41 38 4
42 0 7
42 1 6
42 2 3
42 3 9
42 7 6
42 8 2
42 10 7
42 11 5
42 12 7
42 14 6
42 15 2
42 16 10
42 17 10
42 18 5
42 19 10
42 20 6
42 21 6
42 23 10
42 24 6
42 25 1
42 26 3
42 27 3
42 29 1
42 30 4
42 31 5
42 33 2
42 34 2
42 36 8
42 38 10
42 40 8
42 41 6
43 0 9
43 1 10
43 2 9
43 4 3
43 5 5
43 9 4
43 10 10
43 11 6
43 14 9
43 15 7
43 16 10
43 17 8
43 19 4
43 20 5
43 21 4
43 22 6
43 23 6
43 24 4
43 25 1
43 26 4
43 27 4
43 28 5
43 30 4
43 33 7
43 35 6
43 37 7
43 40 1
43 41 3
44 0 9
44 1 5
44 2 4
44 3 3
44 4 7
44 5 5
44 7 9
44 8 7
44 11 5
44 14 2
44 16 3
44 17 1
44 18 8
44 19 8
44 20 6
44 21 7
44 23 1
44 24 7
44 26 10
44 29 10
44 30 9
44 33 9
44 34 9
44 35 4
44 36 1
44 41 9
44 43 5
45 0 3
45 4 2
45 5 8
45 6 2
45 7 4
45 8 6
45 9 5
45 10 6
45 11 8
45 12 10
45 14 4
45 15 9
45 16 2
45 17 1
45 19 7
45 21 10
45 22 8
45 23 2
45 24 10
45 26 1
45 27 8
45 28 2
45 29 3
45 30 8
45 31 2
45 32 4
45 34 8
45 36 7
45 37 1
45 38 10
45 40 2
45 41 7
45 44 10
46 0 10
46 1 4
46 2 4
46 3 6
46 4 10
46 5 4
46 6 7
46 8 2
46 9 1
46 10 9
46 11 6
46 13 7
46 14 6
46 15 2
46 16 4
46 17 10
46 18 6
46 19 10
46 20 6
46 24 9
46 26 1
46 27 2
46 28 9
46 29 5
46 30 4
46 31 6
46 32 3
46 33 6
46 34 6
46 36 2
46 37 9
46 38 7
46 40 7
46 42 8
46 43 6
46 45 5
47 1 5
47 4 7
47 5 4
47 6 6
47 7 5
47 9 8
47 11 5
47 12 1
47 14 5
47 15 8
47 16 10
47 17 7
47 18 4
47 19 2
47 20 10
47 22 5
47 23 9
47 24 10
47 25 2
47 26 3
47 27 2
47 28 2
47 30 3
47 31 10
47 32 7
47 33 10
47 34 5
47 36 4
47 37 5
47 38 2
47 41 5
47 43 3
47 44 2
47 46 9
48 0 2
48 1 8
48 2 10
48 3 7
48 4 10
48 6 6
48 9 10
48 11 7
48 12 7
48 14 5
48 15 6
48 16 7
48 17 3
48 18 7
48 20 2
48 22 3
48 24 2
48 25 9
48 27 10
48 29 6
48 30 3
48 31 2
48 34 2
48 35 3
48 36 7
48 38 1
48 39 5
48 40 9
48 41 8
48 42 9
48 43 10
48 45 4
48 46 6
48 47 9
49 0 8
49 2 8
49 3 2
49 4 9
49 6 3
49 7 4
49 9 6
49 11 1
49 12 3
49 13 7
49 14 9
49 16 10
49 17 5
49 18 10
49 19 6
49 20 5
49 22 2
49 23 4
49 24 4
49 25 4
49 26 3
49 27 1
49 28 2
49 29 10
49 30 1
49 31 8
49 32 6
49 36 9
49 37 3
49 39 4
49 40 3
49 42 4
49 45 1
49 46 3
49 47 6
49 48 4
50 0 6
50 1 10
50 2 8
50 4 6
50 5 8
50 6 5
50 7 6
50 8 10
50 10 6
50 13 4
50 14 3
50 15 4
50 16 1
50 18 3
50 19 8
50 21 2
50 22 4
50 23 3
50 24 1
50 28 3
50 29 8
50 31 7
50 32 7
50 35 2
50 37 9
50 39 5
50 40 2
50 41 3
50 42 9
50 46 2
50 47 2
50 48 5
50 49 7
51 0 7
51 1 6
51 4 4
51 5 1
51 6 9
51 7 1
51 8 7
51 9 7
51 10 3
51 11 9
51 12 6
51 13 6
51 14 1
51 16 3
51 17 9
51 18 4
51 19 1
51 20 4
51 21 8
51 23 10
51 24 4
51 27 6
51 28 8
51 29 4
51 30 9
51 33 1
51 34 8
51 35 8
51 36 10
51 37 3
51 38 2
51 39 5
51 40 7
51 41 8
51 42 1
51 44 1
51 48 7
51 49 10
52 0 8
52 1 10
52 4 10
52 5 8
52 6 4
52 8 7
52 9 8
52 10 8
52 13 9
52 14 8
52 15 2
52 16 6
52 17 4
52 18 3
52 20 1
52 21 3
52 23 10
52 25 3
52 28 6
52 30 1
52 31 6
52 32 7
52 33 9
52 34 4
52 35 4
52 36 10
52 39 5
52 40 6
52 41 2
52 43 7
52 44 3
52 45 8
52 46 1
52 47 7
52 48 5
52 50 3
52 51 10
53 0 2
53 1 4
53 2 10
53 4 4
53 5 8
53 6 7
53 10 3
53 11 8
53 12 5
53 14 4
53 15 5
53 17 2
53 18 7
53 19 6
53 22 4
53 23 10
53 24 5
53 26 10
53 29 5
53 30 7
53 31 7
53 33 9
53 35 7
53 39 5
53 40 1
53 42 8
53 44 10
53 45 4
53 47 7
53 48 1
53 49 7
53 50 5
53 51 7
53 52 8
54 0 1
54 2 7
54 4 3
54 5 3
54 6 6
54 8 1
54 9 5
54 10 4
54 12 1
54 14 8
54 16 6
54 18 6
54 19 7
54 22 10
54 23 3
54 24 4
54 25 3
54 26 9
54 27 8
54 28 9
54 29 2
54 31 4
54 32 8
54 33 1
54 34 7
54 35 2
54 36 4
54 40 8
54 41 2
54 43 6
54 44 5
54 46 5
54 48 4
54 50 3
54 52 7
55 2 8
55 3 3
55 5 5
55 7 4
55 9 4
55 10 5
55 11 4
55 13 8
55 14 9
55 15 6
55 16 10
55 17 9
55 18 2
55 19 4
55 20 5
55 22 5
55 23 8
55 25 3
55 27 9
55 28 1
55 29 7
55 31 8
55 33 1
55 35 8
55 36 10
55 37 3
55 38 2
55 39 2
55 42 7
55 44 7
55 45 10
55 47 7
55 48 10
55 49 4
55 50 4
55 51 10
55 54 6
56 1 6
56 2 3
56 3 3
56 4 5
56 5 6
56 7 10
56 8 4
56 9 8
56 10 6
56 11 10
56 12 1
56 13 7
56 15 9
56 16 10
56 17 9
56 19 9
56 20 5
56 21 3
56 23 5
56 24 10
56 25 2
56 26 5
56 27 5
56 28 5
56 29 5
56 30 2
56 31 10
56 32 10
56 33 7
56 34 1
56 36 9
56 37 8
56 42 6
56 43 10
56 44 5
56 48 4
56 49 1
56 50 9
56 52 8
56 55 3
57 0 8
57 1 6
57 2 5
57 3 9
57 4 2
57 10 10
57 11 7
57 12 8
57 13 6
57 14 7
57 15 2
57 17 10
57 18 6
57 20 8
57 21 3
57 22 3
57 24 2
57 26 10
57 27 3
57 30 8
57 32 9
57 33 5
57 34 4
57 36 8
57 37 4
57 38 4
57 39 10
57 41 4
57 43 3
57 44 5
57 45 9
57 46 9
57 47 9
57 48 5
57 49 3
57 51 7
57 56 1
58 0 7
58 2 6
58 3 3
58 4 4
58 6 3
58 7 5
58 8 3
58 9 10
58 10 6
58 11 9
58 13 10
58 14 10
58 15 7
58 16 8
58 17 8
58 18 9
58 19 1
58 24 2
58 26 4
58 27 6
58 29 9
58 30 7
58 31 8
58 33 10
58 34 7
58 35 5
58 37 1
58 39 1
58 40 2
58 41 1
58 42 7
58 43 2
58 44 8
58 45 1
58 50 3
58 51 2
58 53 8
58 54 5
58 56 2
59 0 8
59 3 5
59 5 5
59 6 5
59 7 3
59 8 8
59 9 4
59 11 6
59 12 1
59 14 9
59 15 3
59 17 4
59 19 4
59 21 9
59 22 2
59 23 3
59 25 1
59 27 2
59 28 2
59 29 9
59 30 8
59 31 7
59 32 10
59 33 8
59 34 2
59 35 9
59 36 3
59 37 8
59 38 4
59 40 1
59 41 7
59 42 3
59 43 5
59 47 8
59 49 2
59 50 6
59 51 3
59 52 5
59 55 5
59 56 8
59 57 1
59 58 1
60 0 8
60 2 1
60 3 1
60 4 4
60 6 8
60 8 8
60 10 6
60 11 6
60 12 8
60 13 5
60 16 8
60 17 4
60 18 7
60 19 2
60 20 6
60 21 1
60 22 8
60 23 5
60 24 8
60 25 9
60 27 7
60 28 5
60 29 4
60 30 10
60 31 5
60 33 7
60 34 4
60 35 4
60 36 8
60 37 6
60 39 8
60 40 8
60 41 2
60 43 6
60 46 9
60 47 4
60 48 1
60 51 7
60 52 3
60 53 3
60 54 3
60 56 9
60 57 4
60 58 3
60 59 4
61 0 6
61 1 4
61 4 2
61 5 4
61 9 10
61 10 1
61 11 7
61 12 5
61 14 4
61 15 8
61 16 4
61 17 2
61 18 5
61 19 9
61 20 2
61 21 1
61 24 4
61 25 7
61 27 5
61 28 10
61 29 8
61 30 8
61 31 4
61 32 10
61 33 5
61 34 1
61 35 5
61 36 1
61 39 6
61 40 6
61 41 3
61 44 4
61 46 6
61 48 7
61 49 1
61 50 3
61 57 7
61 58 2
61 59 2
61 60 7
62 0 7
62 1 8
62 2 2
62 5 2
62 6 2
62 7 10
62 8 1
62 9 3
62 10 10
62 11 9
62 12 7
62 13 1
62 14 4
62 16 2
62 17 1
62 18 3
62 19 3
62 20 2
62 21 1
62 23 9
62 25 8
62 26 5
62 27 2
62 32 8
62 33 5
62 35 3
62 38 7
62 39 8
62 40 1
62 42 2
62 43 3
62 44 7
62 46 1
62 48 7
62 49 7
62 52 3
62 53 7
62 55 5
62 56 9
62 58 8
62 60 7
62 61 4
63 1 2
63 3 2
63 5 10
63 6 8
63 7 9
63 8 6
63 9 1
63 10 8
63 12 1
63 13 1
63 14 1
63 16 9
63 17 9
63 18 5
63 20 4
63 21 6
63 22 9
63 23 5
63 24 3
63 25 9
63 26 6
63 27 5
63 28 5
63 29 10
63 31 10
63 32 1
63 33 8
63 34 3
63 37 6
63 38 8
63 39 5
63 40 5
63 41 7
63 43 4
63 44 6
63 45 4
63 46 6
63 47 10
63 48 8
63 51 3
63 52 2
63 53 1
63 54 3
63 57 9
63 58 7
63 60 10
63 62 1
64 0 4
64 3 9
64 7 9
64 8 1
64 12 5
64 13 4
64 15 2
64 16 3
64 17 5
64 18 3
64 19 6
64 20 10
64 21 10
64 24 3
64 26 1
64 27 3
64 28 7
64 30 1
64 31 7
64 34 8
64 35 10
64 37 5
64 39 3
64 42 1
64 43 9
64 44 8
64 45 10
64 46 8
64 47 9
64 48 10
64 49 2
64 50 7
64 53 8
64 54 1
64 56 6
64 57 6
64 59 8
64 61 1
64 62 4
64 63 1
65 0 3
65 1 6
65 2 10
65 3 5
65 4 2
65 5 4
65 6 10
65 7 5
65 8 7
65 9 8
65 11 4
65 13 9
65 14 7
65 15 10
65 17 5
65 18 8
65 19 10
65 20 6
65 21 4
65 22 4
65 23 7
65 24 3
65 25 5
65 26 7
65 27 5
65 28 3
65 30 4
65 31 10
65 32 9
65 33 2
65 34 1
65 35 10
65 36 3
65 37 10
65 38 10
65 39 4
65 40 9
65 41 9
65 42 6
65 43 4
65 44 8
65 47 1
65 48 8
65 50 8
65 52 10
65 53 10
65 55 4
65 56 4
65 57 8
65 58 7
65 59 2
65 60 3
65 62 10
65 63 1
65 64 3
66 0 9
66 1 8
66 3 5
66 4 5
66 6 4
66 7 9
66 9 1
66 10 3
66 13 2
66 14 4
66 16 2
66 17 5
66 18 3
66 20 9
66 22 4
66 23 2
66 25 5
66 26 8
66 27 9
66 29 9
66 31 7
66 32 3
66 33 2
66 34 2
66 36 9
66 37 3
66 38 7
66 40 9
66 41 3
66 42 4
66 43 2
66 44 10
66 47 10
66 50 4
66 51 9
66 52 10
66 54 5
66 55 2
66 56 7
66 57 10
66 58 2
66 59 4
66 62 7
66 63 4
67 1 9
67 2 7
67 4 8
67 8 1
67 9 10
67 11 2
67 12 5
67 15 5
67 16 8
67 17 10
67 19 3
67 20 9
67 22 10
67 23 8
67 26 5
67 28 9
67 29 4
67 30 7
67 32 10
67 34 8
67 35 1
67 36 1
67 37 4
67 38 10
67 41 7
67 43 2
67 44 4
67 46 9
67 48 8
67 51 8
67 52 7
67 55 8
67 58 9
67 59 1
67 62 10
67 63 8
67 64 4
67 66 4
68 1 5
68 2 5
68 3 10
68 5 1
68 7 9
68 8 7
68 10 5
68 11 4
68 12 5
68 14 8
68 15 3
68 16 8
68 19 3
68 20 2
68 21 7
68 23 4
68 26 4
68 27 1
68 29 3
68 31 6
68 32 5
68 33 4
68 34 6
68 35 4
68 36 10
68 37 7
68 38 6
68 41 9
68 42 6
68 43 4
68 44 1
68 46 2
68 47 7
68 50 2
68 52 2
68 53 8
68 54 10
68 55 9
68 56 10
68 57 5
68 58 2
68 59 4
68 61 4
68 63 7
68 64 2
68 65 5
68 66 5
68 67 3
69 0 2
69 1 9
69 2 10
69 3 8
69 6 4
69 7 3
69 9 2
69 11 9
69 12 6
69 13 1
69 14 6
69 15 2
69 18 4
69 20 4
69 21 2
69 23 8
69 25 4
69 27 3
69 28 2
69 31 8
69 32 10
69 33 8
69 34 9
69 35 7
69 36 5
69 38 9
69 40 7
69 41 7
69 42 9
69 43 8
69 46 5
69 48 10
69 49 3
69 50 4
69 51 3
69 52 7
69 53 2
69 54 2
69 56 10
69 59 9
69 62 9
69 64 6
69 65 6
69 67 9
69 68 6
